Version identifier: 20.1.0.0 | 2020-11-10 | 9bedb6d68
Tried aggregator 2 times.
MIP Presolve eliminated 1258 rows and 684 columns.
MIP Presolve modified 3194 coefficients.
Aggregator did 146 substitutions.
Reduced MIP has 1805 rows, 1385 columns, and 5934 nonzeros.
Reduced MIP has 247 binaries, 1138 generals, 0 SOSs, and 0 indicators.
Presolve time = 0.02 sec. (7.15 ticks)
Found incumbent of value 2272.000000 after 0.03 sec. (14.34 ticks)
Probing fixed 40 vars, tightened 416 bounds.
Probing time = 0.00 sec. (1.19 ticks)
Tried aggregator 1 time.
Detecting symmetries...
MIP Presolve eliminated 780 rows and 40 columns.
MIP Presolve modified 95 coefficients.
Reduced MIP has 1025 rows, 1345 columns, and 3354 nonzeros.
Reduced MIP has 393 binaries, 952 generals, 0 SOSs, and 0 indicators.
Presolve time = 0.01 sec. (3.69 ticks)
Probing time = 0.00 sec. (0.28 ticks)
Clique table members: 45.
MIP emphasis: balance optimality and feasibility.
MIP search method: dynamic search.
Parallel mode: deterministic, using up to 24 threads.
Root relaxation solution time = 0.01 sec. (2.72 ticks)

        Nodes                                         Cuts/
   Node  Left     Objective  IInf  Best Integer    Best Bound    ItCnt     Gap

*     0+    0                         2272.0000        0.0000           100.00%
      0     0        0.0000    64     2272.0000        0.0000      324  100.00%
      0     0        0.0000   100     2272.0000     Cuts: 149      458  100.00%
*     0+    0                           25.0000        0.0000           100.00%
      0     0        0.0000    65       25.0000     Cuts: 108      524  100.00%
*     0+    0                           20.0000        0.0000           100.00%
      0     0        0.0000   142       20.0000      Cuts: 65      619  100.00%
*     0+    0                           12.0000        0.0000           100.00%
*     0+    0                           10.0000        0.0000           100.00%
      0     0        cutoff             10.0000       10.0000      619    0.00%
Elapsed time = 0.84 sec. (112.67 ticks, tree = 0.01 MB, solutions = 5)

Implied bound cuts applied:  49
Flow cuts applied:  1
Mixed integer rounding cuts applied:  6
Zero-half cuts applied:  66
Lift and project cuts applied:  10
Gomory fractional cuts applied:  24

Root node processing (before b&c):
  Real time             =    0.84 sec. (112.81 ticks)
Parallel b&c, 24 threads:
  Real time             =    0.00 sec. (0.00 ticks)
  Sync time (average)   =    0.00 sec.
  Wait time (average)   =    0.00 sec.
                          ------------
Total (root+branch&cut) =    0.84 sec. (112.81 ticks)

Solution status = Optimal
Solution LB = 10
Solution UB = 10
Runtime = 0.841465 seconds
	Command being timed: "/home/min/git_repos/CS598MEBProject/CNT-ILP/build/cnt -s 2 ./output/k8_n20/simC_c1_k8_n20_u1_s2_del04.input-right.cnp"
	User time (seconds): 13.63
	System time (seconds): 0.09
	Percent of CPU this job got: 1585%
	Elapsed (wall clock) time (h:mm:ss or m:ss): 0:00.86
	Average shared text size (kbytes): 0
	Average unshared data size (kbytes): 0
	Average stack size (kbytes): 0
	Average total size (kbytes): 0
	Maximum resident set size (kbytes): 97396
	Average resident set size (kbytes): 0
	Major (requiring I/O) page faults: 4
	Minor (reclaiming a frame) page faults: 21562
	Voluntary context switches: 6266
	Involuntary context switches: 2102
	Swaps: 0
	File system inputs: 1120
	File system outputs: 16
	Socket messages sent: 0
	Socket messages received: 0
	Signals delivered: 0
	Page size (bytes): 4096
	Exit status: 0
